webassembly/ejemplos_dzn/12/folder12_json_81.dzn
TERM = { '.', 's(5)', 's(2)', 's(4)', 'in_1', 'local_1', 'in_2', 'in_4', 'in_3', 's(8)', 's(6)', 's(1)', 's(0)', 's(7)', 'in_5', 's(3)', 'in_0'};
null = '.';
s = 12;
n = 11;
ndeps = 5;
max_registers_sz = 3;
NR = 0;
registers = [| |];
dependencies = [|'i32.load8_u_1', 'i32.store16_2', |'i32.store16_2', 'i32.load_3', |'i32.store16_2', 'i32.load8_s_4', |'i32.load_3', 'i32.store16_11', |'i32.load8_s_4', 'i32.store16_11'|];
GET_ENUM = { GET1, GET2, GET3};
SET_ENUM = { SET1, SET2, SET3};
TEE_ENUM = { TEE1, TEE2, TEE3};
N = 12;
OP = { 'i32.const_0', 'i32.add_0', 'i32.add_1', 'i32.add_2', 'i32.sub_0', 'i32.load8_u_1', 'i32.store16_2', 'i32.load_3', 'i32.load8_s_4', 'i32.const_1', 'i32.store16_11', 'local.get_0' };
in_ops = [0, 2, 2, 2, 2, 1, 2, 1, 1, 0, 2, 0 ];
out_ops = [1, 1, 1, 1, 1, 1, 0, 1, 1, 1, 0, 1 ];
in1 = ['.', 's(3)', 's(7)', 's(5)', 'in_0', 's(0)', 's(1)', 'in_3', 's(2)', '.', 'local_1', '.' ];
in2 = ['.', 'in_4', 's(4)', 'in_5', 'in_1', '.', 'in_2', '.', '.', '.', 's(8)', '.' ];
in3 = ['.', '.', '.', '.', '.', '.', '.', '.', '.', '.', '.', '.' ];
out1 = ['s(7)', 's(4)', 's(5)', 's(6)', 's(0)', 's(1)', '.', 's(2)', 's(3)', 's(8)', '.', 'local_1' ];
out2 = ['.', '.', '.', '.', '.', '.', '.', '.', '.', '.', '.', '.' ];
out3 = ['.', '.', '.', '.', '.', '.', '.', '.', '.', '.', '.', '.' ];
comm = [false, true, true, true, false, false, false, false, false, false, false, false ];
gas = [1, 1, 1, 1, 1, 1, 1, 1, 1, 1, 1, 1 ];
sz = [1, 1, 1, 1, 1, 1, 1, 1, 1, 1, 1, 1 ];
stor = [false, false, false, false, false, false, true, false, false, false, true, false ];
lb = [ 1, 1, 1, 1, 1, 1, 1, 1, 1, 1, 1, 1 ];
ub = [ 12, 12, 12, 12, 12, 12, 12, 12, 12, 12, 12, 12 ];
startstack = [ 'in_0', 'in_1', 'in_2', 'in_3', 'in_4', 'in_5', null, null, null, null, null ];
endstack = [ 's(6)', null, null, null, null, null, null, null, null, null, null ];
